1 1047
2 986
3 968
4 909
11 855
159 851
337 845
630 824



1 1018
2 984
3 898
11 895
12 870
42 865
80 847
253 844
355 825
530 822
624 821
638 811



1 1069
2 991
4 967
5 957
6 929
7 922
10 894
12 867
37 859
118 853
193 844
211 830



1 1129
2 986
3 896
14 892
21 886
45 871
75 851
76 831
309 823
471 815



1 1111
2 892
29 861
51 853
75 847
183 841
243 837
827 836



